8	4
2	3	1	12	3	14	4	10	3	4	12	2	10	3	14
2	3	2	22	4	20	3	24	3	4	18	3	20	1	16
2	3	2	18	3	20	4	16	3	4	14	1	12	3	16
2	3	3	32	2	28	1	34	3	4	14	3	18	2	12
2	3	1	18	4	22	2	20	3	3	36	2	40	4	34
3	3	2	26	3	24	1	28	3	3	38	4	36	2	34	3	4	12	1	16	3	14
3	3	1	20	3	22	4	22	3	2	18	1	20	3	20	3	3	26	2	22	1	22
3	3	1	22	2	18	4	20	3	2	18	3	20	1	22	3	4	16	1	18	3	14
0	3	4	5	6
6	0	3	4	5
5	3	0	3	4
4	4	3	0	3
3	5	4	3	0
